array [1..36] of var 1..6: x :: output_array([1..6, 1..6]);
constraint all_different_int([x[1], x[2], x[3], x[4], x[5], x[6]]);
constraint all_different_int([x[1], x[7], x[13], x[19], x[25], x[31]]);
constraint all_different_int([x[2], x[8], x[14], x[20], x[26], x[32]]);
constraint all_different_int([x[3], x[9], x[15], x[21], x[27], x[33]]);
constraint all_different_int([x[4], x[10], x[16], x[22], x[28], x[34]]);
constraint all_different_int([x[5], x[11], x[17], x[23], x[29], x[35]]);
constraint all_different_int([x[6], x[12], x[18], x[24], x[30], x[36]]);
constraint all_different_int([x[7], x[8], x[9], x[10], x[11], x[12]]);
constraint all_different_int([x[13], x[14], x[15], x[16], x[17], x[18]]);
constraint all_different_int([x[19], x[20], x[21], x[22], x[23], x[24]]);
constraint all_different_int([x[25], x[26], x[27], x[28], x[29], x[30]]);
constraint all_different_int([x[31], x[32], x[33], x[34], x[35], x[36]]);
solve satisfy;
